VERTICES = 500
EDGES = 108
151 303
389 394
425 396
337 242
308 391
177 9
205 136
378 326
145 318
45 278
224 122
267 288
366 188
238 351
468 124
71 495
124 80
155 51
376 73
86 485
44 449
65 309
166 391
145 450
473 123
134 187
392 449
500 131
269 450
9 195
268 454
440 317
136 467
359 3
93 404
409 478
416 82
383 180
182 266
443 282
284 287
235 371
56 68
220 423
161 206
235 253
159 214
96 372
108 422
389 229
108 307
46 103
56 215
74 57
151 104
400 497
214 287
151 229
343 314
225 319
260 16
370 29
134 24
341 167
148 242
187 447
299 456
268 248
419 254
393 14
468 208
105 329
33 255
470 161
311 18
89 449
190 200
321 190
43 22
29 428
493 145
321 199
171 227
398 121
100 215
222 213
499 268
431 129
316 488
219 106
219 348
82 217
131 272
291 358
146 382
123 441
185 469
224 500
444 400
233 70
282 24
204 406
426 309
98 337
147 49
438 34
395 382
189 192
